networks/zoo_254_6424/zoo_254_6424-lower.txt
Number of groups: 154
Flow 1: {1 103 0} 
Flow 9: {2 103 0} {103 7 0} {7 134 0} 
Flow 54: {73 88 0} {88 215 0} 
Flow 74: {3 103 0} 
Flow 82: {4 103 0} 
Flow 84: {5 103 0} {103 10 0} {10 137 0} 
Flow 143: {6 103 0} {103 2 0} {2 129 0} 
Flow 205: {7 103 0} 
Flow 213: {8 103 0} 
Flow 222: {9 103 0} {103 6 0} {6 133 0} 
Flow 316: {10 103 0} {103 230 0} 
Flow 368: {12 67 0} 
Flow 402: {13 14 0} {14 43 0} {43 170 0} 
Flow 499: {14 41 0} {41 168 0} 
Flow 504: {14 46 0} {46 173 0} 
Flow 581: {15 67 0} 
Flow 625: {16 67 0} {67 68 0} {68 195 0} 
Flow 662: {17 67 0} {67 194 0} 
Flow 671: {18 67 0} {67 12 0} {12 139 0} 
Flow 760: {19 14 0} {14 42 0} {42 169 0} 
Flow 835: {20 14 0} {14 40 0} {40 167 0} 
Flow 843: {51 73 0} {73 86 0} {86 213 0} 
Flow 911: {21 44 0} {44 119 0} {119 246 0} 
Flow 917: {22 44 0} {44 14 0} {14 11 0} {11 138 0} 
Flow 990: {23 44 0} {44 118 0} {118 245 0} 
Flow 997: {24 44 0} 
Flow 1004: {25 44 0} 
Flow 1024: {26 44 0} {44 69 0} {69 196 0} 
Flow 1101: {27 44 0} {44 91 0} {91 218 0} 
Flow 1125: {28 127 0} 
Flow 1132: {29 127 0} 
Flow 1158: {30 127 0} {127 33 0} {33 160 0} 
Flow 1231: {31 127 0} {127 103 0} {103 5 0} {5 132 0} 
Flow 1262: {32 127 0} {127 30 0} {30 157 0} 
Flow 1355: {33 127 0} {127 107 0} {107 234 0} 
Flow 1445: {34 127 0} {127 111 0} {111 238 0} 
Flow 1458: {35 127 0} {127 29 0} {29 156 0} 
Flow 1472: {36 127 0} 
Flow 1552: {37 127 0} {127 109 0} {109 236 0} 
Flow 1574: {38 44 0} {44 22 0} {22 149 0} 
Flow 1673: {39 44 0} {44 45 0} {45 172 0} 
Flow 1722: {40 14 0} {14 13 0} {13 140 0} 
Flow 1774: {41 14 0} {14 19 0} {19 146 0} 
Flow 1855: {42 14 0} {14 141 0} 
Flow 1861: {43 14 0} 
Flow 1887: {44 23 0} {23 150 0} 
Flow 1926: {44 66 0} {66 193 0} 
Flow 1952: {44 92 0} {92 219 0} 
Flow 1959: {44 99 0} {99 226 0} 
Flow 1974: {44 116 0} {116 243 0} 
Flow 1984: {45 44 0} 
Flow 1994: {46 14 0} {14 47 0} {47 174 0} 
Flow 2113: {48 51 0} 
Flow 2120: {49 51 0} 
Flow 2160: {50 51 0} {51 62 0} {62 189 0} 
Flow 2213: {11 47 0} {47 67 0} {67 18 0} {18 145 0} 
Flow 2252: {51 59 0} {59 186 0} 
Flow 2254: {60 61 0} {61 188 0} 
Flow 2256: {51 63 0} {63 190 0} 
Flow 2366: {52 73 0} {73 81 0} {81 208 0} 
Flow 2454: {53 73 0} {73 82 0} {82 209 0} 
Flow 2505: {54 73 0} {73 55 0} {55 182 0} 
Flow 2537: {55 73 0} {73 70 0} {70 197 0} 
Flow 2571: {56 51 0} {51 58 0} {58 185 0} 
Flow 2642: {57 51 0} {51 56 0} {56 183 0} 
Flow 2722: {58 51 0} {51 49 0} {49 176 0} 
Flow 2811: {59 51 0} {51 50 0} {50 177 0} 
Flow 2872: {62 51 0} 
Flow 2874: {63 51 0} 
Flow 2916: {64 51 0} {51 57 0} {57 184 0} 
Flow 2995: {65 51 0} {51 48 0} {48 175 0} 
Flow 3097: {66 44 0} {44 90 0} {90 217 0} 
Flow 3125: {67 15 0} {15 142 0} 
Flow 3126: {67 16 0} {16 143 0} 
Flow 3127: {67 17 0} {17 144 0} 
Flow 3168: {47 11 0} {11 60 0} {60 187 0} 
Flow 3248: {68 67 0} {67 47 0} {47 61 0} {61 103 0} {103 127 0} {127 36 0} {36 163 0} 
Flow 3314: {69 44 0} {44 25 0} {25 152 0} 
Flow 3378: {70 73 0} {73 79 0} {79 206 0} 
Flow 3414: {71 73 0} {73 77 0} {77 204 0} 
Flow 3454: {72 73 0} {73 74 0} {74 201 0} 
Flow 3469: {103 4 0} {4 131 0} 
Flow 3516: {73 53 0} {53 180 0} 
Flow 3537: {73 75 0} {75 202 0} 
Flow 3538: {73 76 0} {76 203 0} 
Flow 3546: {73 84 0} {84 211 0} 
Flow 3551: {73 89 0} {89 216 0} 
Flow 3586: {74 73 0} 
Flow 3646: {75 73 0} {73 78 0} {78 205 0} 
Flow 3744: {76 73 0} {73 87 0} {87 214 0} 
Flow 3783: {77 73 0} {73 51 0} {51 178 0} 
Flow 3849: {78 73 0} {73 80 0} {80 207 0} 
Flow 3913: {79 73 0} {73 52 0} {52 179 0} 
Flow 3996: {80 73 0} {73 54 0} {54 181 0} 
Flow 4044: {51 60 0} {60 11 0} {11 14 0} {14 44 0} {44 114 0} {114 241 0} 
Flow 4055: {81 73 0} {73 127 0} {127 37 0} {37 164 0} 
Flow 4122: {82 73 0} {73 85 0} {85 212 0} 
Flow 4151: {83 73 0} 
Flow 4158: {84 73 0} 
Flow 4213: {85 73 0} {73 71 0} {71 198 0} 
Flow 4275: {86 73 0} {73 72 0} {72 199 0} 
Flow 4291: {87 73 0} 
Flow 4333: {88 73 0} {73 83 0} {83 210 0} 
Flow 4350: {89 73 0} 
Flow 4424: {90 44 0} {44 93 0} {93 220 0} 
Flow 4481: {91 44 0} {44 115 0} {115 242 0} 
Flow 4551: {92 44 0} {44 96 0} {96 223 0} 
Flow 4569: {93 44 0} 
Flow 4577: {94 44 0} 
Flow 4584: {95 44 0} 
Flow 4614: {96 44 0} {44 39 0} {39 166 0} 
Flow 4714: {97 44 0} {44 94 0} {94 221 0} 
Flow 4733: {98 44 0} {44 26 0} {26 153 0} 
Flow 4758: {99 44 0} 
Flow 4767: {100 44 0} {44 171 0} 
Flow 4803: {101 44 0} {44 98 0} {98 225 0} 
Flow 4845: {102 103 0} {103 61 0} {61 60 0} {60 51 0} {51 65 0} {65 192 0} 
Flow 4880: {103 3 0} {3 130 0} 
Flow 4989: {104 127 0} {127 254 0} 
Flow 5040: {105 127 0} {127 110 0} {110 237 0} 
Flow 5070: {106 127 0} {127 73 0} {73 200 0} 
Flow 5094: {107 127 0} {127 34 0} {34 161 0} 
Flow 5121: {108 127 0} 
Flow 5168: {109 127 0} {127 108 0} {108 235 0} 
Flow 5258: {110 127 0} {127 112 0} {112 239 0} 
Flow 5267: {111 127 0} 
Flow 5343: {112 127 0} {127 104 0} {104 231 0} 
Flow 5366: {113 127 0} {127 106 0} {106 233 0} 
Flow 5379: {114 44 0} {44 21 0} {21 148 0} 
Flow 5505: {115 44 0} {44 95 0} {95 222 0} 
Flow 5539: {116 44 0} {44 27 0} {27 154 0} 
Flow 5618: {117 44 0} {44 38 0} {38 165 0} 
Flow 5696: {118 44 0} {44 100 0} {100 227 0} 
Flow 5782: {119 44 0} {44 97 0} {97 224 0} 
Flow 5911: {120 121 0} {121 248 0} 
Flow 5912: {120 123 0} {123 250 0} 
Flow 6007: {121 120 0} {120 125 0} {125 252 0} 
Flow 6050: {122 120 0} {120 124 0} {124 251 0} 
Flow 6140: {123 120 0} 
Flow 6161: {124 120 0} {120 127 0} {127 31 0} {31 158 0} 
Flow 6293: {125 120 0} {120 126 0} {126 253 0} 
Flow 6300: {126 120 0} {120 247 0} 
Flow 6302: {103 1 0} {1 128 0} 
Flow 6309: {103 8 0} {8 135 0} 
Flow 6320: {61 47 0} {47 14 0} {14 20 0} {20 147 0} 
Flow 6327: {127 28 0} {28 155 0} 
Flow 6331: {127 32 0} {32 159 0} 
Flow 6334: {127 35 0} {35 162 0} 
Flow 6363: {51 64 0} {64 191 0} 
Flow 6400: {103 102 0} {102 229 0} 
Flow 6403: {127 105 0} {105 232 0} 
Flow 6411: {127 113 0} {113 240 0} 
Flow 6415: {44 117 0} {117 244 0} 
Flow 6420: {127 120 0} {120 122 0} {122 249 0} 
Time taken running everything: 66 seconds
