networks/zoo_254_6424/zoo_254_6424-lower.sol
<?xml version = "1.0" encoding="UTF-8" standalone="yes"?>
<CPLEXSolution version="1.2">
 <header
   problemName="networks/zoo_254_6424/zoo_254_6424-lower.lp"
   solutionName="incumbent"
   solutionIndex="-1"
   objectiveValue="124"
   solutionTypeValue="3"
   solutionTypeString="primal"
   solutionStatusValue="101"
   solutionStatusString="integer optimal solution"
   solutionMethodString="mip"
   primalFeasible="1"
   dualFeasible="1"
   MIPNodes="0"
   MIPIterations="0"
   writeLevel="3"/>
 <quality
   epInt="1.0000000000000001e-05"
   epRHS="9.9999999999999995e-07"
   maxIntInfeas="0"
   maxPrimalInfeas="0"
   maxX="1"
   maxSlack="1"/>
 <variables>
  <variable name="Y(1,14)" index="13" value="1"/>
  <variable name="Y(2,44)" index="294" value="1"/>
  <variable name="Y(3,47)" index="548" value="1"/>
  <variable name="Y(4,67)" index="819" value="1"/>
  <variable name="Y(5,103)" index="1106" value="1"/>
  <variable name="Y(6,120)" index="1374" value="1"/>
  <variable name="Y(7,127)" index="1632" value="1"/>
  <variable name="Y(8,5)" index="1761" value="1"/>
  <variable name="Y(9,7)" index="2014" value="1"/>
  <variable name="Y(10,10)" index="2268" value="1"/>
  <variable name="Y(11,11)" index="2520" value="1"/>
  <variable name="Y(12,12)" index="2772" value="1"/>
  <variable name="Y(13,13)" index="3024" value="1"/>
  <variable name="Y(15,19)" index="3532" value="1"/>
  <variable name="Y(16,20)" index="3784" value="1"/>
  <variable name="Y(17,21)" index="4036" value="1"/>
  <variable name="Y(18,25)" index="4291" value="1"/>
  <variable name="Y(19,26)" index="4543" value="1"/>
  <variable name="Y(20,27)" index="4795" value="1"/>
  <variable name="Y(21,29)" index="5048" value="1"/>
  <variable name="Y(22,30)" index="5300" value="1"/>
  <variable name="Y(23,34)" index="5555" value="1"/>
  <variable name="Y(24,37)" index="5809" value="1"/>
  <variable name="Y(25,38)" index="6061" value="1"/>
  <variable name="Y(26,39)" index="6313" value="1"/>
  <variable name="Y(27,40)" index="6565" value="1"/>
  <variable name="Y(28,42)" index="6818" value="1"/>
  <variable name="Y(30,45)" index="7323" value="1"/>
  <variable name="Y(32,48)" index="7828" value="1"/>
  <variable name="Y(33,50)" index="8081" value="1"/>
  <variable name="Y(34,51)" index="8333" value="1"/>
  <variable name="Y(35,53)" index="8586" value="1"/>
  <variable name="Y(36,55)" index="8839" value="1"/>
  <variable name="Y(37,58)" index="9093" value="1"/>
  <variable name="Y(38,62)" index="9348" value="1"/>
  <variable name="Y(39,63)" index="9600" value="1"/>
  <variable name="Y(40,65)" index="9853" value="1"/>
  <variable name="Y(42,68)" index="10358" value="1"/>
  <variable name="Y(43,69)" index="10610" value="1"/>
  <variable name="Y(44,70)" index="10862" value="1"/>
  <variable name="Y(45,72)" index="11115" value="1"/>
  <variable name="Y(46,73)" index="11367" value="1"/>
  <variable name="Y(47,74)" index="11619" value="1"/>
  <variable name="Y(48,75)" index="11871" value="1"/>
  <variable name="Y(49,77)" index="12124" value="1"/>
  <variable name="Y(50,79)" index="12377" value="1"/>
  <variable name="Y(51,82)" index="12631" value="1"/>
  <variable name="Y(52,83)" index="12883" value="1"/>
  <variable name="Y(53,86)" index="13137" value="1"/>
  <variable name="Y(54,88)" index="13390" value="1"/>
  <variable name="Y(55,90)" index="13643" value="1"/>
  <variable name="Y(56,91)" index="13895" value="1"/>
  <variable name="Y(57,94)" index="14149" value="1"/>
  <variable name="Y(58,95)" index="14401" value="1"/>
  <variable name="Y(59,96)" index="14653" value="1"/>
  <variable name="Y(60,98)" index="14906" value="1"/>
  <variable name="Y(61,100)" index="15159" value="1"/>
  <variable name="Y(63,106)" index="15667" value="1"/>
  <variable name="Y(64,107)" index="15919" value="1"/>
  <variable name="Y(65,108)" index="16171" value="1"/>
  <variable name="Y(66,110)" index="16424" value="1"/>
  <variable name="Y(67,115)" index="16680" value="1"/>
  <variable name="Y(68,119)" index="16935" value="1"/>
  <variable name="Y(70,124)" index="17442" value="1"/>
  <variable name="Y(71,125)" index="17694" value="1"/>
  <variable name="Y(72,126)" index="17946" value="1"/>
  <variable name="Y(143,2)" index="35643" value="1"/>
  <variable name="Y(222,6)" index="55476" value="1"/>
  <variable name="Y(232,22)" index="58002" value="1"/>
  <variable name="Y(238,31)" index="59517" value="1"/>
  <variable name="Y(239,33)" index="59770" value="1"/>
  <variable name="Y(241,36)" index="60275" value="1"/>
  <variable name="Y(247,43)" index="61788" value="1"/>
  <variable name="Y(252,49)" index="63049" value="1"/>
  <variable name="Y(255,52)" index="63805" value="1"/>
  <variable name="Y(257,54)" index="64309" value="1"/>
  <variable name="Y(259,56)" index="64813" value="1"/>
  <variable name="Y(260,57)" index="65065" value="1"/>
  <variable name="Y(262,60)" index="65570" value="1"/>
  <variable name="Y(270,71)" index="67589" value="1"/>
  <variable name="Y(276,78)" index="69102" value="1"/>
  <variable name="Y(278,80)" index="69606" value="1"/>
  <variable name="Y(279,81)" index="69858" value="1"/>
  <variable name="Y(282,85)" index="70615" value="1"/>
  <variable name="Y(284,87)" index="71119" value="1"/>
  <variable name="Y(286,89)" index="71623" value="1"/>
  <variable name="Y(289,93)" index="72380" value="1"/>
  <variable name="Y(293,97)" index="73388" value="1"/>
  <variable name="Y(297,104)" index="74399" value="1"/>
  <variable name="Y(301,109)" index="75408" value="1"/>
  <variable name="Y(303,111)" index="75912" value="1"/>
  <variable name="Y(305,118)" index="76421" value="1"/>
  <variable name="Y(466,3)" index="116717" value="1"/>
  <variable name="Y(467,4)" index="116969" value="1"/>
  <variable name="Y(475,15)" index="118988" value="1"/>
  <variable name="Y(476,16)" index="119240" value="1"/>
  <variable name="Y(477,17)" index="119492" value="1"/>
  <variable name="Y(478,18)" index="119744" value="1"/>
  <variable name="Y(483,23)" index="121004" value="1"/>
  <variable name="Y(487,28)" index="122013" value="1"/>
  <variable name="Y(491,32)" index="123021" value="1"/>
  <variable name="Y(499,41)" index="125038" value="1"/>
  <variable name="Y(504,46)" index="126298" value="1"/>
  <variable name="Y(517,59)" index="129574" value="1"/>
  <variable name="Y(519,61)" index="130078" value="1"/>
  <variable name="Y(523,66)" index="131087" value="1"/>
  <variable name="Y(533,76)" index="133607" value="1"/>
  <variable name="Y(541,84)" index="135623" value="1"/>
  <variable name="Y(549,92)" index="137639" value="1"/>
  <variable name="Y(556,99)" index="139403" value="1"/>
  <variable name="Y(560,105)" index="140413" value="1"/>
  <variable name="Y(567,112)" index="142177" value="1"/>
  <variable name="Y(568,113)" index="142429" value="1"/>
  <variable name="Y(569,114)" index="142681" value="1"/>
  <variable name="Y(571,116)" index="143185" value="1"/>
  <variable name="Y(575,121)" index="144194" value="1"/>
  <variable name="Y(576,123)" index="144447" value="1"/>
  <variable name="Y(2204,8)" index="552960" value="1"/>
  <variable name="Y(2229,35)" index="559262" value="1"/>
  <variable name="Y(2257,64)" index="566319" value="1"/>
  <variable name="Y(6302,1)" index="1581551" value="1"/>
  <variable name="Y(6400,102)" index="1606250" value="1"/>
  <variable name="Y(6415,117)" index="1610030" value="1"/>
  <variable name="Y(6420,122)" index="1611290" value="1"/>
  <variable name="X(1,103,1)" index="1612424" value="1"/>
  <variable name="X(1,128,6302)" index="1625149" value="1"/>
  <variable name="X(2,103,8)" index="1625279" value="1"/>
  <variable name="X(2,129,143)" index="1631838" value="1"/>
  <variable name="X(3,103,74)" index="1638193" value="1"/>
  <variable name="X(3,130,466)" index="1645009" value="1"/>
  <variable name="X(4,103,81)" index="1651048" value="1"/>
  <variable name="X(4,131,467)" index="1657858" value="1"/>
  <variable name="X(5,103,83)" index="1663898" value="1"/>
  <variable name="X(5,132,8)" index="1670247" value="1"/>
  <variable name="X(6,103,143)" index="1676806" value="1"/>
  <variable name="X(6,133,222)" index="1683309" value="1"/>
  <variable name="X(7,103,205)" index="1689716" value="1"/>
  <variable name="X(7,134,9)" index="1695944" value="1"/>
  <variable name="X(8,103,213)" index="1702572" value="1"/>
  <variable name="X(8,135,2204)" index="1710987" value="1"/>
  <variable name="X(9,103,220)" index="1715427" value="1"/>
  <variable name="X(10,103,312)" index="1721943" value="1"/>
  <variable name="X(10,137,10)" index="1728065" value="1"/>
  <variable name="X(11,14,324)" index="1734803" value="1"/>
  <variable name="X(11,47,322)" index="1741225" value="1"/>
  <variable name="X(11,60,320)" index="1747647" value="1"/>
  <variable name="X(11,138,11)" index="1753762" value="1"/>
  <variable name="X(12,67,358)" index="1760533" value="1"/>
  <variable name="X(12,139,12)" index="1766611" value="1"/>
  <variable name="X(13,14,376)" index="1773399" value="1"/>
  <variable name="X(13,140,13)" index="1779460" value="1"/>
  <variable name="X(14,11,406)" index="1786277" value="1"/>
  <variable name="X(14,13,13)" index="1792308" value="1"/>
  <variable name="X(14,19,15)" index="1798734" value="1"/>
  <variable name="X(14,20,16)" index="1805159" value="1"/>
  <variable name="X(14,40,27)" index="1811594" value="1"/>
  <variable name="X(14,41,499)" index="1818490" value="1"/>
  <variable name="X(14,42,28)" index="1824443" value="1"/>
  <variable name="X(14,43,247)" index="1831086" value="1"/>
  <variable name="X(14,44,17)" index="1837280" value="1"/>
  <variable name="X(14,46,504)" index="1844191" value="1"/>
  <variable name="X(14,47,377)" index="1850488" value="1"/>
  <variable name="X(14,141,1)" index="1856536" value="1"/>
  <variable name="X(15,67,581)" index="1863540" value="1"/>
  <variable name="X(15,142,475)" index="1869858" value="1"/>
  <variable name="X(16,67,588)" index="1876395" value="1"/>
  <variable name="X(16,143,476)" index="1882707" value="1"/>
  <variable name="X(17,67,660)" index="1889315" value="1"/>
  <variable name="X(17,144,477)" index="1895556" value="1"/>
  <variable name="X(18,67,666)" index="1902169" value="1"/>
  <variable name="X(18,145,478)" index="1908405" value="1"/>
  <variable name="X(19,14,735)" index="1915086" value="1"/>
  <variable name="X(19,146,15)" index="1920790" value="1"/>
  <variable name="X(20,14,826)" index="1928025" value="1"/>
  <variable name="X(20,147,16)" index="1933639" value="1"/>
  <variable name="X(21,44,851)" index="1940898" value="1"/>
  <variable name="X(21,148,17)" index="1946488" value="1"/>
  <variable name="X(22,44,917)" index="1953812" value="1"/>
  <variable name="X(22,149,232)" index="1959551" value="1"/>
  <variable name="X(23,44,925)" index="1966668" value="1"/>
  <variable name="X(23,150,483)" index="1972650" value="1"/>
  <variable name="X(24,44,997)" index="1979588" value="1"/>
  <variable name="X(25,44,1004)" index="1986019" value="1"/>
  <variable name="X(25,152,18)" index="1991457" value="1"/>
  <variable name="X(26,44,1011)" index="1998874" value="1"/>
  <variable name="X(26,153,19)" index="2004306" value="1"/>
  <variable name="X(27,44,1035)" index="2011746" value="1"/>
  <variable name="X(27,154,20)" index="2017155" value="1"/>
  <variable name="X(28,127,1125)" index="2024684" value="1"/>
  <variable name="X(28,155,487)" index="2030470" value="1"/>
  <variable name="X(29,127,1132)" index="2037539" value="1"/>
  <variable name="X(29,156,21)" index="2042852" value="1"/>
  <variable name="X(30,127,1140)" index="2050395" value="1"/>
  <variable name="X(30,157,22)" index="2055701" value="1"/>
  <variable name="X(31,127,1231)" index="2063334" value="1"/>
  <variable name="X(31,158,238)" index="2068765" value="1"/>
  <variable name="X(32,127,1247)" index="2076198" value="1"/>
  <variable name="X(32,159,491)" index="2081866" value="1"/>
  <variable name="X(33,127,1314)" index="2089113" value="1"/>
  <variable name="X(33,160,239)" index="2094462" value="1"/>
  <variable name="X(34,127,1363)" index="2102010" value="1"/>
  <variable name="X(34,161,23)" index="2107094" value="1"/>
  <variable name="X(35,127,1454)" index="2114949" value="1"/>
  <variable name="X(35,162,2229)" index="2122148" value="1"/>
  <variable name="X(36,127,1472)" index="2127815" value="1"/>
  <variable name="X(36,163,241)" index="2133008" value="1"/>
  <variable name="X(37,127,1479)" index="2140670" value="1"/>
  <variable name="X(37,164,24)" index="2145639" value="1"/>
  <variable name="X(38,44,1562)" index="2153601" value="1"/>
  <variable name="X(38,165,25)" index="2158488" value="1"/>
  <variable name="X(39,44,1651)" index="2166538" value="1"/>
  <variable name="X(39,166,26)" index="2171337" value="1"/>
  <variable name="X(40,14,1717)" index="2179452" value="1"/>
  <variable name="X(40,167,27)" index="2184186" value="1"/>
  <variable name="X(41,14,1765)" index="2192348" value="1"/>
  <variable name="X(41,168,499)" index="2197506" value="1"/>
  <variable name="X(42,14,1855)" index="2205286" value="1"/>
  <variable name="X(42,169,28)" index="2209883" value="1"/>
  <variable name="X(43,14,1861)" index="2218140" value="1"/>
  <variable name="X(43,170,247)" index="2222950" value="1"/>
  <variable name="X(44,14,852)" index="2229979" value="1"/>
  <variable name="X(44,21,17)" index="2235568" value="1"/>
  <variable name="X(44,22,232)" index="2242207" value="1"/>
  <variable name="X(44,23,483)" index="2248882" value="1"/>
  <variable name="X(44,25,18)" index="2254841" value="1"/>
  <variable name="X(44,26,19)" index="2261266" value="1"/>
  <variable name="X(44,27,20)" index="2267691" value="1"/>
  <variable name="X(44,38,25)" index="2274120" value="1"/>
  <variable name="X(44,39,26)" index="2280545" value="1"/>
  <variable name="X(44,45,30)" index="2286973" value="1"/>
  <variable name="X(44,66,523)" index="2293890" value="1"/>
  <variable name="X(44,69,43)" index="2299834" value="1"/>
  <variable name="X(44,90,55)" index="2306270" value="1"/>
  <variable name="X(44,91,56)" index="2312695" value="1"/>
  <variable name="X(44,92,549)" index="2319612" value="1"/>
  <variable name="X(44,93,289)" index="2325776" value="1"/>
  <variable name="X(44,94,57)" index="2331968" value="1"/>
  <variable name="X(44,95,58)" index="2338393" value="1"/>
  <variable name="X(44,96,59)" index="2344818" value="1"/>
  <variable name="X(44,97,293)" index="2351476" value="1"/>
  <variable name="X(44,98,60)" index="2357667" value="1"/>
  <variable name="X(44,99,556)" index="2364587" value="1"/>
  <variable name="X(44,100,61)" index="2370516" value="1"/>
  <variable name="X(44,114,569)" index="2377448" value="1"/>
  <variable name="X(44,115,67)" index="2383370" value="1"/>
  <variable name="X(44,116,571)" index="2390298" value="1"/>
  <variable name="X(44,117,6415)" index="2402566" value="1"/>
  <variable name="X(44,118,305)" index="2402880" value="1"/>
  <variable name="X(44,119,68)" index="2409067" value="1"/>
  <variable name="X(44,171,2)" index="2415425" value="1"/>
  <variable name="X(45,44,1984)" index="2423831" value="1"/>
  <variable name="X(45,172,30)" index="2428301" value="1"/>
  <variable name="X(46,14,1992)" index="2436687" value="1"/>
  <variable name="X(46,173,504)" index="2441623" value="1"/>
  <variable name="X(47,11,11)" index="2447554" value="1"/>
  <variable name="X(47,14,2)" index="2453969" value="1"/>
  <variable name="X(47,61,362)" index="2460753" value="1"/>
  <variable name="X(47,67,4)" index="2466819" value="1"/>
  <variable name="X(47,174,3)" index="2473242" value="1"/>
  <variable name="X(48,51,2113)" index="2481776" value="1"/>
  <variable name="X(48,175,32)" index="2486119" value="1"/>
  <variable name="X(49,51,2120)" index="2494631" value="1"/>
  <variable name="X(49,176,252)" index="2499187" value="1"/>
  <variable name="X(50,51,2128)" index="2507487" value="1"/>
  <variable name="X(50,177,33)" index="2511816" value="1"/>
  <variable name="X(51,48,32)" index="2518239" value="1"/>
  <variable name="X(51,49,252)" index="2524883" value="1"/>
  <variable name="X(51,50,33)" index="2531088" value="1"/>
  <variable name="X(51,56,259)" index="2537738" value="1"/>
  <variable name="X(51,57,260)" index="2544163" value="1"/>
  <variable name="X(51,58,37)" index="2550364" value="1"/>
  <variable name="X(51,59,517)" index="2557268" value="1"/>
  <variable name="X(51,60,1145)" index="2564320" value="1"/>
  <variable name="X(51,62,38)" index="2569637" value="1"/>
  <variable name="X(51,63,39)" index="2576062" value="1"/>
  <variable name="X(51,64,2257)" index="2584704" value="1"/>
  <variable name="X(51,65,40)" index="2588911" value="1"/>
  <variable name="X(51,73,327)" index="2595622" value="1"/>
  <variable name="X(51,178,34)" index="2601753" value="1"/>
  <variable name="X(52,73,2317)" index="2610460" value="1"/>
  <variable name="X(52,179,255)" index="2614822" value="1"/>
  <variable name="X(53,73,2394)" index="2623385" value="1"/>
  <variable name="X(53,180,35)" index="2627450" value="1"/>
  <variable name="X(54,73,2488)" index="2636327" value="1"/>
  <variable name="X(54,181,257)" index="2640520" value="1"/>
  <variable name="X(55,73,2528)" index="2649215" value="1"/>
  <variable name="X(55,182,36)" index="2653147" value="1"/>
  <variable name="X(56,51,2544)" index="2662079" value="1"/>
  <variable name="X(56,183,259)" index="2666218" value="1"/>
  <variable name="X(57,51,2605)" index="2674988" value="1"/>
  <variable name="X(57,184,260)" index="2679067" value="1"/>
  <variable name="X(58,51,2691)" index="2687922" value="1"/>
  <variable name="X(58,185,37)" index="2691692" value="1"/>
  <variable name="X(59,51,2778)" index="2700857" value="1"/>
  <variable name="X(59,186,517)" index="2705020" value="1"/>
  <variable name="X(60,11,1145)" index="2712072" value="1"/>
  <variable name="X(60,51,33)" index="2717384" value="1"/>
  <variable name="X(60,61,319)" index="2724094" value="1"/>
  <variable name="X(60,187,262)" index="2730461" value="1"/>
  <variable name="X(61,47,2)" index="2736625" value="1"/>
  <variable name="X(61,60,32)" index="2743079" value="1"/>
  <variable name="X(61,103,320)" index="2749791" value="1"/>
  <variable name="X(61,188,519)" index="2756414" value="1"/>
  <variable name="X(62,51,2872)" index="2765191" value="1"/>
  <variable name="X(62,189,38)" index="2768781" value="1"/>
  <variable name="X(63,51,2874)" index="2778041" value="1"/>
  <variable name="X(63,190,39)" index="2781630" value="1"/>
  <variable name="X(64,51,2880)" index="2790895" value="1"/>
  <variable name="X(64,191,2257)" index="2796696" value="1"/>
  <variable name="X(65,51,2964)" index="2803827" value="1"/>
  <variable name="X(65,192,40)" index="2807327" value="1"/>
  <variable name="X(66,44,3053)" index="2816764" value="1"/>
  <variable name="X(66,193,523)" index="2820658" value="1"/>
  <variable name="X(67,12,12)" index="2826571" value="1"/>
  <variable name="X(67,15,475)" index="2833458" value="1"/>
  <variable name="X(67,16,476)" index="2839883" value="1"/>
  <variable name="X(67,17,477)" index="2846308" value="1"/>
  <variable name="X(67,18,478)" index="2852733" value="1"/>
  <variable name="X(67,47,358)" index="2859037" value="1"/>
  <variable name="X(67,68,42)" index="2865145" value="1"/>
  <variable name="X(67,194,4)" index="2871531" value="1"/>
  <variable name="X(68,67,3230)" index="2881181" value="1"/>
  <variable name="X(68,195,42)" index="2884417" value="1"/>
  <variable name="X(69,44,3303)" index="2894102" value="1"/>
  <variable name="X(69,196,43)" index="2897266" value="1"/>
  <variable name="X(70,73,3365)" index="2907012" value="1"/>
  <variable name="X(70,197,44)" index="2910115" value="1"/>
  <variable name="X(71,73,3384)" index="2919879" value="1"/>
  <variable name="X(71,198,270)" index="2923189" value="1"/>
  <variable name="X(72,73,3431)" index="2932774" value="1"/>
  <variable name="X(72,199,45)" index="2935812" value="1"/>
  <variable name="X(73,51,1145)" index="2943336" value="1"/>
  <variable name="X(73,52,255)" index="2948870" value="1"/>
  <variable name="X(73,53,35)" index="2955074" value="1"/>
  <variable name="X(73,54,257)" index="2961720" value="1"/>
  <variable name="X(73,55,36)" index="2967923" value="1"/>
  <variable name="X(73,70,44)" index="2974355" value="1"/>
  <variable name="X(73,71,270)" index="2981005" value="1"/>
  <variable name="X(73,72,45)" index="2987204" value="1"/>
  <variable name="X(73,74,47)" index="2993630" value="1"/>
  <variable name="X(73,75,48)" index="3000055" value="1"/>
  <variable name="X(73,76,533)" index="3006964" value="1"/>
  <variable name="X(73,77,49)" index="3012904" value="1"/>
  <variable name="X(73,78,276)" index="3019555" value="1"/>
  <variable name="X(73,79,50)" index="3025753" value="1"/>
  <variable name="X(73,80,278)" index="3032405" value="1"/>
  <variable name="X(73,81,279)" index="3038830" value="1"/>
  <variable name="X(73,82,51)" index="3045026" value="1"/>
  <variable name="X(73,83,52)" index="3051451" value="1"/>
  <variable name="X(73,84,541)" index="3058364" value="1"/>
  <variable name="X(73,85,282)" index="3064529" value="1"/>
  <variable name="X(73,86,53)" index="3070724" value="1"/>
  <variable name="X(73,87,284)" index="3077379" value="1"/>
  <variable name="X(73,88,54)" index="3083573" value="1"/>
  <variable name="X(73,89,286)" index="3090229" value="1"/>
  <variable name="X(73,127,327)" index="3096694" value="1"/>
  <variable name="X(73,200,46)" index="3102837" value="1"/>
  <variable name="X(74,73,3586)" index="3112801" value="1"/>
  <variable name="X(74,201,47)" index="3115686" value="1"/>
  <variable name="X(75,73,3592)" index="3125655" value="1"/>
  <variable name="X(75,202,48)" index="3128535" value="1"/>
  <variable name="X(76,73,3681)" index="3138592" value="1"/>
  <variable name="X(76,203,533)" index="3141868" value="1"/>
  <variable name="X(77,73,3772)" index="3151531" value="1"/>
  <variable name="X(77,204,49)" index="3154232" value="1"/>
  <variable name="X(78,73,3793)" index="3164400" value="1"/>
  <variable name="X(78,205,276)" index="3167307" value="1"/>
  <variable name="X(79,73,3882)" index="3177337" value="1"/>
  <variable name="X(79,206,50)" index="3179929" value="1"/>
  <variable name="X(80,73,3959)" index="3190262" value="1"/>
  <variable name="X(80,207,278)" index="3193005" value="1"/>
  <variable name="X(81,73,4053)" index="3203204" value="1"/>
  <variable name="X(81,208,279)" index="3205854" value="1"/>
  <variable name="X(82,73,4062)" index="3216061" value="1"/>
  <variable name="X(82,209,51)" index="3218474" value="1"/>
  <variable name="X(83,73,4151)" index="3228998" value="1"/>
  <variable name="X(83,210,52)" index="3231323" value="1"/>
  <variable name="X(84,73,4158)" index="3241853" value="1"/>
  <variable name="X(84,211,541)" index="3244660" value="1"/>
  <variable name="X(85,73,4164)" index="3254707" value="1"/>
  <variable name="X(85,212,282)" index="3257249" value="1"/>
  <variable name="X(86,73,4252)" index="3267643" value="1"/>
  <variable name="X(86,213,53)" index="3269868" value="1"/>
  <variable name="X(87,73,4291)" index="3280530" value="1"/>
  <variable name="X(87,214,284)" index="3282947" value="1"/>
  <variable name="X(88,73,4297)" index="3293384" value="1"/>
  <variable name="X(88,215,54)" index="3295565" value="1"/>
  <variable name="X(89,73,4350)" index="3306285" value="1"/>
  <variable name="X(89,216,286)" index="3308645" value="1"/>
  <variable name="X(90,44,4357)" index="3319140" value="1"/>
  <variable name="X(90,217,55)" index="3321262" value="1"/>
  <variable name="X(91,44,4447)" index="3332078" value="1"/>
  <variable name="X(91,218,56)" index="3334111" value="1"/>
  <variable name="X(92,44,4485)" index="3344964" value="1"/>
  <variable name="X(92,219,549)" index="3347452" value="1"/>
  <variable name="X(93,44,4569)" index="3357896" value="1"/>
  <variable name="X(93,220,289)" index="3360040" value="1"/>
  <variable name="X(94,44,4577)" index="3370752" value="1"/>
  <variable name="X(94,221,57)" index="3372656" value="1"/>
  <variable name="X(95,44,4584)" index="3383607" value="1"/>
  <variable name="X(95,222,58)" index="3385505" value="1"/>
  <variable name="X(96,44,4592)" index="3396463" value="1"/>
  <variable name="X(96,223,59)" index="3398354" value="1"/>
  <variable name="X(97,44,4675)" index="3409394" value="1"/>
  <variable name="X(97,224,293)" index="3411436" value="1"/>
  <variable name="X(98,44,4727)" index="3422294" value="1"/>
  <variable name="X(98,225,60)" index="3424051" value="1"/>
  <variable name="X(99,44,4758)" index="3435173" value="1"/>
  <variable name="X(99,226,556)" index="3437395" value="1"/>
  <variable name="X(100,44,4766)" index="3448029" value="1"/>
  <variable name="X(100,227,61)" index="3449748" value="1"/>
  <variable name="X(101,44,4773)" index="3460884" value="1"/>
  <variable name="X(102,103,4813)" index="3467348" value="1"/>
  <variable name="X(102,229,6400)" index="3475359" value="1"/>
  <variable name="X(103,1,6302)" index="3481685" value="1"/>
  <variable name="X(103,2,143)" index="3481950" value="1"/>
  <variable name="X(103,3,466)" index="3488697" value="1"/>
  <variable name="X(103,4,467)" index="3495122" value="1"/>
  <variable name="X(103,5,8)" index="3501087" value="1"/>
  <variable name="X(103,6,222)" index="3507725" value="1"/>
  <variable name="X(103,7,9)" index="3513936" value="1"/>
  <variable name="X(103,8,2204)" index="3522555" value="1"/>
  <variable name="X(103,10,10)" index="3526785" value="1"/>
  <variable name="X(103,61,2)" index="3533201" value="1"/>
  <variable name="X(103,102,6400)" index="3546023" value="1"/>
  <variable name="X(103,127,7)" index="3546054" value="1"/>
  <variable name="X(103,230,5)" index="3552476" value="1"/>
  <variable name="X(104,127,4988)" index="3563883" value="1"/>
  <variable name="X(104,231,297)" index="3565616" value="1"/>
  <variable name="X(105,127,4990)" index="3576733" value="1"/>
  <variable name="X(105,232,560)" index="3578727" value="1"/>
  <variable name="X(106,127,5046)" index="3589637" value="1"/>
  <variable name="X(106,233,63)" index="3591078" value="1"/>
  <variable name="X(107,127,5085)" index="3602524" value="1"/>
  <variable name="X(107,234,64)" index="3603927" value="1"/>
  <variable name="X(108,127,5121)" index="3615408" value="1"/>
  <variable name="X(108,235,65)" index="3616776" value="1"/>
  <variable name="X(109,127,5128)" index="3628263" value="1"/>
  <variable name="X(109,236,301)" index="3629860" value="1"/>
  <variable name="X(110,127,5175)" index="3641158" value="1"/>
  <variable name="X(110,237,66)" index="3642473" value="1"/>
  <variable name="X(111,127,5267)" index="3654098" value="1"/>
  <variable name="X(111,238,303)" index="3655558" value="1"/>
  <variable name="X(112,127,5274)" index="3666953" value="1"/>
  <variable name="X(112,239,567)" index="3668670" value="1"/>
  <variable name="X(113,127,5357)" index="3679884" value="1"/>
  <variable name="X(113,240,568)" index="3681519" value="1"/>
  <variable name="X(114,44,5369)" index="3692744" value="1"/>
  <variable name="X(114,241,569)" index="3694368" value="1"/>
  <variable name="X(115,44,5434)" index="3705657" value="1"/>
  <variable name="X(115,242,67)" index="3706714" value="1"/>
  <variable name="X(116,44,5525)" index="3718596" value="1"/>
  <variable name="X(116,243,571)" index="3720066" value="1"/>
  <variable name="X(117,44,5608)" index="3731527" value="1"/>
  <variable name="X(117,244,6415)" index="3738758" value="1"/>
  <variable name="X(118,44,5642)" index="3744409" value="1"/>
  <variable name="X(118,245,305)" index="3745496" value="1"/>
  <variable name="X(119,44,5709)" index="3757324" value="1"/>
  <variable name="X(119,246,68)" index="3758107" value="1"/>
  <variable name="X(120,121,575)" index="3765038" value="1"/>
  <variable name="X(120,122,6420)" index="3777307" value="1"/>
  <variable name="X(120,123,576)" index="3777887" value="1"/>
  <variable name="X(120,124,70)" index="3783805" value="1"/>
  <variable name="X(120,125,71)" index="3790230" value="1"/>
  <variable name="X(120,126,72)" index="3796655" value="1"/>
  <variable name="X(120,127,5801)" index="3808808" value="1"/>
  <variable name="X(120,247,6)" index="3809437" value="1"/>
  <variable name="X(121,120,5917)" index="3821772" value="1"/>
  <variable name="X(121,248,575)" index="3822854" value="1"/>
  <variable name="X(122,120,6010)" index="3834713" value="1"/>
  <variable name="X(122,249,6420)" index="3841547" value="1"/>
  <variable name="X(123,120,6053)" index="3847604" value="1"/>
  <variable name="X(123,250,576)" index="3848551" value="1"/>
  <variable name="X(124,120,6143)" index="3860542" value="1"/>
  <variable name="X(124,251,70)" index="3860893" value="1"/>
  <variable name="X(125,120,6231)" index="3873478" value="1"/>
  <variable name="X(125,252,71)" index="3873742" value="1"/>
  <variable name="X(126,120,6295)" index="3886390" value="1"/>
  <variable name="X(126,253,72)" index="3886591" value="1"/>
  <variable name="X(127,28,487)" index="3893430" value="1"/>
  <variable name="X(127,29,21)" index="3899388" value="1"/>
  <variable name="X(127,30,22)" index="3905813" value="1"/>
  <variable name="X(127,31,238)" index="3912453" value="1"/>
  <variable name="X(127,32,491)" index="3919130" value="1"/>
  <variable name="X(127,33,239)" index="3925302" value="1"/>
  <variable name="X(127,34,23)" index="3931510" value="1"/>
  <variable name="X(127,35,2229)" index="3940140" value="1"/>
  <variable name="X(127,36,241)" index="3944576" value="1"/>
  <variable name="X(127,37,24)" index="3950783" value="1"/>
  <variable name="X(127,73,36)" index="3957219" value="1"/>
  <variable name="X(127,103,1126)" index="3964733" value="1"/>
  <variable name="X(127,104,297)" index="3970328" value="1"/>
  <variable name="X(127,105,560)" index="3977015" value="1"/>
  <variable name="X(127,106,63)" index="3982942" value="1"/>
  <variable name="X(127,107,64)" index="3989367" value="1"/>
  <variable name="X(127,108,65)" index="3995792" value="1"/>
  <variable name="X(127,109,301)" index="4002452" value="1"/>
  <variable name="X(127,110,66)" index="4008641" value="1"/>
  <variable name="X(127,111,303)" index="4015302" value="1"/>
  <variable name="X(127,112,567)" index="4021990" value="1"/>
  <variable name="X(127,113,568)" index="4028415" value="1"/>
  <variable name="X(127,120,6)" index="4034277" value="1"/>
  <variable name="X(127,254,7)" index="4040702" value="1"/>
 </variables>
</CPLEXSolution>
